StudentsNr = 10;
InstructorsNr = 90;
DaysNr = 1;
SlotsPerDay = 15;
AvailabilitySlotsLenght = 3;
RoomNr = 1;
ProgrammNr = 1;
DegreeNr = 1;
RolesNr = 2;
CoursesNr = 0;
InstructorsProgramm = [{1}, {1}, {1}, {1}, {1}, {1}, {1}, {1}, {1}, {1}, {1}, {1}, {1}, {1}, {1}, {1}, {1}, {1}, {1}, {1}, {1}, {1}, {1}, {1}, {1}, {1}, {1}, {1}, {1}, {1}, {1}, {1}, {1}, {1}, {1}, {1}, {1}, {1}, {1}, {1}, {1}, {1}, {1}, {1}, {1}, {1}, {1}, {1}, {1}, {1}, {1}, {1}, {1}, {1}, {1}, {1}, {1}, {1}, {1}, {1}, {1}, {1}, {1}, {1}, {1}, {1}, {1}, {1}, {1}, {1}, {1}, {1}, {1}, {1}, {1}, {1}, {1}, {1}, {1}, {1}, {1}, {1}, {1}, {1}, {1}, {1}, {1}, {1}, {1}, {1}];
InstructorRolesPerProgramm = [|{1, 2, 9, 10, 11, 13, 14, 23, 25, 26, 27, 29, 30, 32, 33, 35, 36, 40, 42, 45, 47, 51, 52, 58, 61, 68, 69, 74, 85, 89}, {4, 6, 7, 8, 10, 12, 14, 15, 22, 28, 34, 36, 40, 42, 45, 46, 47, 49, 50, 51, 52, 58, 62, 63, 65, 66, 67, 71, 73, 74, 76, 77, 78, 79, 80, 83, 84, 86, 89, 90}|];
InstructorsAvailability = [|1, 1, 1, 1, 1, |0, 0, 0, 1, 1, |1, 1, 0, 0, 1, |1, 1, 1, 1, 1, |1, 1, 1, 1, 1, |1, 1, 1, 1, 1, |1, 0, 0, 1, 1, |1, 1, 0, 1, 0, |1, 1, 1, 1, 1, |0, 0, 0, 1, 1, |0, 1, 1, 0, 0, |0, 0, 1, 1, 1, |1, 1, 1, 1, 0, |1, 1, 1, 0, 1, |1, 1, 1, 1, 1, |0, 1, 1, 0, 1, |0, 1, 0, 0, 1, |0, 1, 1, 1, 1, |0, 0, 0, 1, 1, |1, 1, 1, 1, 0, |0, 0, 0, 0, 1, |1, 1, 1, 1, 1, |1, 1, 1, 1, 1, |1, 0, 0, 1, 1, |0, 1, 0, 1, 0, |1, 1, 0, 1, 1, |1, 1, 1, 1, 1, |0, 0, 1, 1, 1, |1, 1, 1, 0, 1, |1, 1, 1, 1, 0, |0, 1, 1, 1, 1, |1, 1, 1, 1, 0, |1, 1, 1, 1, 1, |1, 1, 1, 1, 1, |0, 0, 0, 1, 1, |0, 0, 0, 0, 0, |1, 1, 1, 1, 1, |1, 1, 1, 1, 1, |1, 1, 1, 1, 0, |0, 1, 1, 1, 1, |0, 1, 1, 1, 1, |1, 1, 1, 1, 0, |1, 1, 1, 1, 1, |0, 1, 1, 1, 1, |0, 1, 1, 1, 1, |1, 0, 0, 1, 1, |0, 1, 1, 1, 0, |1, 1, 1, 1, 1, |1, 1, 1, 1, 1, |1, 1, 1, 1, 1, |0, 1, 1, 1, 1, |0, 0, 1, 1, 1, |0, 1, 1, 1, 1, |1, 1, 1, 1, 1, |1, 1, 1, 1, 1, |0, 1, 0, 1, 1, |0, 1, 1, 1, 1, |0, 0, 1, 1, 1, |1, 1, 1, 0, 1, |1, 1, 1, 1, 1, |1, 1, 1, 1, 1, |1, 1, 0, 0, 0, |1, 1, 1, 0, 1, |0, 0, 0, 1, 1, |0, 1, 0, 1, 1, |0, 1, 1, 0, 1, |0, 1, 1, 1, 1, |0, 1, 1, 1, 0, |0, 1, 1, 1, 1, |1, 0, 1, 1, 1, |0, 0, 0, 0, 0, |1, 1, 1, 1, 1, |1, 1, 0, 1, 1, |1, 1, 1, 1, 1, |1, 1, 1, 0, 0, |0, 1, 1, 1, 0, |0, 0, 1, 1, 1, |0, 1, 1, 1, 0, |0, 0, 1, 1, 1, |1, 1, 1, 1, 0, |0, 0, 0, 1, 1, |0, 1, 1, 0, 0, |0, 1, 1, 1, 1, |0, 1, 1, 1, 1, |0, 1, 1, 1, 1, |0, 1, 1, 1, 1, |1, 1, 1, 1, 1, |1, 1, 1, 1, 1, |1, 1, 0, 0, 0, |0, 1, 1, 1, 1|];
StudentsProgramm = [1, 1, 1, 1, 1, 1, 1, 1, 1, 1];
StudentsDegree = [1, 1, 1, 1, 1, 1, 1, 1, 1, 1];
StudentsSupervisorId = [24, 6, 89, 6, 64, 13, 42, 47, 90, 9];
StudentsCourseIds = [{}, {}, {}, {}, {}, {}, {}, {}, {}, {}];
StudentsAvailability = [|1, 1, 1, 1, 1, |1, 1, 1, 1, 1, |1, 1, 1, 1, 1, |0, 0, 0, 0, 0, |1, 1, 1, 0, 1, |1, 1, 1, 1, 1, |0, 1, 1, 1, 1, |0, 1, 1, 1, 1, |0, 0, 0, 1, 1, |1, 1, 1, 1, 1|];
TheoryticalMinCard = [1, 0, 0, 0, 1, 0, 0, 0, 0, 0];
CoursesInstructorIds = [];
RolesDemands = [10, 7];
RolesContinuity = [2];
ExamLen = [1, 1, 1, 1, 1, 1, 1, 1, 1, 1];
LunchTsMinLen = 1;
LunchStarts = [3..9];
SupervisorAvailable = 0;
OptimalLunchLenght = [1, 1];
OptimalStartTs = [0, 0];
OptimalFinishTs = [1, 15];
MinimizeRooms = 400;
RolesSoftContinuity = [|1, 2|4, 3|];
SameDegreeInRoom = 20;
Mergeability = 2;
